221,326
214,312
34,78
168,143
182,221
106,335
228,377
25,8
262,227
211,229
150,202
148,144
245,175
220,26
11,278
243,292
73,68
4,201
393,41
265,338
140,36
328,254
336,324
70,134
203,101
224,369
268,302
313,267
346,128
184,123
334,261
270,269
379,130
11,299
208,39
139,93
334,293
39,218
15,212
161,75
287,266
392,359
344,152
253,389
183,135
396,353
47,343
41,188
130,221
186,80
